&CONTROL
  calculation = 'scf'
  etot_conv_thr =   4.0000000000d-05
  forc_conv_thr =   1.0000000000d-04
  outdir = './pt/out/'
  prefix = 'aiida'
  pseudo_dir = './pt/pseudo/'
  tprnfor = .true.
  tstress = .true.
  verbosity = 'high'
/
&SYSTEM
  degauss =   1.2500000000d-02
  ecutrho =   2.8000000000d+02
  ecutwfc =   3.5000000000d+01
  ibrav = 0
  nat = 4
  nosym = .false.
  ntyp = 1
  occupations = 'smearing'
  smearing = 'cold'
/
&ELECTRONS
  conv_thr =   8.0000000000d-10
  electron_maxstep = 80
  mixing_beta =   4.0000000000d-01
/
ATOMIC_SPECIES
Pt     195.084 pt_pbesol_v1.4.uspp.F.UPF
ATOMIC_POSITIONS crystal
Pt           0.0000000000       0.0000000000       0.0000000000
Pt           0.0000000000       0.5000000000       0.5000000000
Pt           0.5000000000       0.0000000000       0.5000000000
Pt           0.5000000000       0.5000000000       0.0000000000
K_POINTS automatic
16 16 16 0 0 0
CELL_PARAMETERS angstrom
      3.9400000000       0.0000000000       0.0000000000
      0.0000000000       3.9400000000       0.0000000000
      0.0000000000       0.0000000000       3.9400000000
