&CONTROL
  calculation = 'scf'
  etot_conv_thr =   4.0000000000d-05
  forc_conv_thr =   1.0000000000d-04
  outdir = './ni/out/'
  prefix = 'aiida'
  pseudo_dir = './ni/pseudo/'
  tprnfor = .true.
  tstress = .true.
  verbosity = 'high'
/
&SYSTEM
  degauss =   1.2500000000d-02
  ecutrho =   3.6000000000d+02
  ecutwfc =   4.5000000000d+01
  ibrav = 0
  nat = 4
  nosym = .false.
  nspin = 2
  ntyp = 1
  occupations = 'smearing'
  smearing = 'cold'
  starting_magnetization(1) =   2.7777777778d-01
/
&ELECTRONS
  conv_thr =   8.0000000000d-10
  electron_maxstep = 80
  mixing_beta =   4.0000000000d-01
/
ATOMIC_SPECIES
Ni     58.6934 ni_pbesol_v1.4.uspp.F.UPF
ATOMIC_POSITIONS crystal
Ni           0.0000000000       0.0000000000       0.0000000000
Ni           0.0000000000       0.5000000000       0.5000000000
Ni           0.5000000000       0.0000000000       0.5000000000
Ni           0.5000000000       0.5000000000       0.0000000000
K_POINTS automatic
19 19 19 0 0 0
CELL_PARAMETERS angstrom
      3.4800000000       0.0000000000       0.0000000000
      0.0000000000       3.4800000000       0.0000000000
      0.0000000000       0.0000000000       3.4800000000
