&CONTROL
  calculation = 'scf'
  etot_conv_thr =   2.0000000000d-05
  forc_conv_thr =   1.0000000000d-04
  outdir = './fept/out/'
  prefix = 'aiida'
  pseudo_dir = './fept/pseudo/'
  tprnfor = .true.
  tstress = .true.
  verbosity = 'high'
/
&SYSTEM
  degauss =   2.0000000000d-02
  ecutrho =   1.0800000000d+03
  ecutwfc =   9.0000000000d+01
  ibrav = 0
  nat = 2
  nosym = .false.
  nspin = 2
  ntyp = 2
  occupations = 'smearing'
  smearing = 'cold'
  starting_magnetization(1) =   3.1250000000d-01
  starting_magnetization(2) =   3.1250000000d-01
/
&ELECTRONS
  conv_thr =   4.0000000000d-10
  electron_maxstep = 80
  mixing_beta =   4.0000000000d-01
/
ATOMIC_SPECIES
Fe     55.845 Fe.pbesol-spn-kjpaw_psl.0.2.1.UPF
Pt     195.084 pt_pbesol_v1.4.uspp.F.UPF
ATOMIC_POSITIONS crystal
Fe           0.0000000000       0.0000000000       0.0000000000
Pt           0.5000000000       0.5000000000       0.5000000000
K_POINTS automatic
11 11 12 0 0 0
CELL_PARAMETERS angstrom
      3.8500000000       0.0000000000       0.0000000000
      0.0000000000       3.8500000000       0.0000000000
      0.0000000000       0.0000000000       3.7200000000
